53
 energy: -84.982145755239 gnorm: 0.004810169447 xtb: 6.7.1 (edcfbbe)
O            7.42180207888513       -1.05621891125613       -1.75531512583777
O            7.73480394778047        0.70762602362436        1.87454389575426
O           11.37896478093000        0.87167102315040       -3.04365619771681
O            3.88164401725011       -2.35104611727919        1.82146506616996
O           15.41207282903600        0.83353087915657        1.07708085034458
O           15.52472489371306        1.36199394828956       -1.09065121816592
N            7.22663075830224       -1.29433987590177        0.96730223141383
N            9.47720405146129       -0.18869822153920       -1.54396002726957
N            4.60781805450173       -0.47360369106885        0.80392688842198
N           13.00002596245072        0.54976388095182       -1.53665256059418
N            2.57654446901965       -3.26412624959483       -0.44469250950124
C            8.51451743109161       -1.47061192434134        0.33443271882058
C           10.65574193888599        0.26211901706599       -0.84363640148682
C            5.41751581400575       -0.00283068941242        1.90930843612842
C            8.42122358968626       -0.87671253435974       -1.08503428359498
C            6.90935093743605       -0.13496975660097        1.57798851452113
C            8.86335397411446       -2.95238405368664        0.23858051285757
C           11.70786049934611        0.57691035719639       -1.91467148908454
C           10.35675577660245        1.55558611863997       -0.06538531452832
C            5.07185917707222        1.43744744931163        2.26931048241017
C           13.59382392938729        0.16085619662820       -0.28189567387260
C            3.03343976384611       -1.88836327375013       -0.39179692160600
C            3.87565830813056       -1.60892289005499        0.85781883725134
C           13.85197095468368       -1.35392001598577       -0.21260195234209
C            1.81570881755833       -0.95683910541205       -0.38799572689837
C           14.94198372964901        0.86568157536951       -0.16717947418826
H            9.23488385856331       -0.93094378691182        0.95081530516623
H           11.01535408847520       -0.52443890946664       -0.17555832028152
H            5.19918232413975       -0.67346089459240        2.75188549606056
H            6.47951418101994       -1.88004728148851        0.62527549418630
H            9.39965149917350        0.19253526747390       -2.48422232318487
H            9.84300763029519       -3.08284058433422       -0.21275207193987
H            8.12948466408833       -3.45960491860549       -0.38314700263734
H            8.86328959893861       -3.40385336072459        1.22693507907141
H            4.60174703807533        0.08648600265351       -0.03379728226240
H            9.57204923573910        1.38626283573044        0.66981721135318
H           10.01688120263424        2.31677954729375       -0.76343306185976
H           11.24463644914513        1.92481837870056        0.44017244819585
H            5.72236005071675        1.77428866307769        3.07198276767901
H            5.23045270438169        2.08547908483523        1.40953193390195
H            4.03594004713239        1.51002924243511        2.58926178573286
H           12.97366287152874        0.46778768088296        0.56550311631890
H           13.67410152684985        0.81351655483349       -2.24908750144784
H            3.63772966409914       -1.69876568623160       -1.28793405675201
H           12.91782742355667       -1.89866480027401       -0.32234739374358
H           14.30147275144042       -1.60975748079041        0.74331078231868
H           14.52140477269304       -1.65370484302877       -1.01531548104114
H            2.11558838708456        0.08290461293361       -0.48650593907532
H            1.16632952049094       -1.22348021498028       -1.21641389841990
H            1.26037385023672       -1.07767513312138        0.53993392478153
H            2.10776863794595       -3.48899751427662        0.42934816194750
H            3.37065396093513       -3.89218610300730       -0.51925159593728
H           16.28743599828175        1.25157928914177        1.13048067534217

